Grasp exp. instance_n_10_m_5_id_2.lp tipoLifted 0 szPool 5 nIteration 50 alpha 1 
Academic license - for non-commercial use only
Read LP format model from file ../input/instancesGenerated/instance_n_10_m_5_id_2.lp
Reading time = 0.00 seconds
: 5 rows, 10 columns, 50 nonzeros
Optimize a model with 5 rows, 10 columns and 50 nonzeros
Variable types: 0 continuous, 10 integer (10 binary)
Coefficient statistics:
  Matrix range     [1e+00, 1e+01]
  Objective range  [1e+00, 9e+00]
  Bounds range     [1e+00, 1e+00]
  RHS range        [2e+01, 3e+01]
Found heuristic solution: objective 23.0000000

Explored 0 nodes (0 simplex iterations) in 0.00 seconds
Thread count was 1 (of 8 available processors)

Solution count 1: 23 
No other solutions better than 0

Solution limit reached
Best objective 2.300000000000e+01, best bound -, gap -
C_1:	 2.00 x_1  = 0.000000 + 1.00 x_2  = 0.696552 + 3.00 x_3  = 0.634483 + 9.00 x_4  = 0.600000 + 3.00 x_5  = 0.000000 + 8.00 x_6  = 0.000000 + 1.00 x_7  = 0.000000 + 3.00 x_8  = 1.000000 + 4.00 x_9  = 1.000000 + 3.00 x_10  = 1.000000 <= 18.00
C_2:	 1.00 x_1  = 0.000000 + 10.00 x_2  = 0.696552 + 1.00 x_3  = 0.634483 + 9.00 x_4  = 0.600000 + 6.00 x_5  = 0.000000 + 6.00 x_6  = 0.000000 + 9.00 x_7  = 0.000000 + 2.00 x_8  = 1.000000 + 10.00 x_9  = 1.000000 + 3.00 x_10  = 1.000000 <= 28.00
C_3:	 3.00 x_1  = 0.000000 + 3.00 x_2  = 0.696552 + 9.00 x_3  = 0.634483 + 2.00 x_4  = 0.600000 + 1.00 x_5  = 0.000000 + 3.00 x_6  = 0.000000 + 5.00 x_7  = 0.000000 + 1.00 x_8  = 1.000000 + 2.00 x_9  = 1.000000 + 5.00 x_10  = 1.000000 <= 17.00
C_4:	 9.00 x_1  = 0.000000 + 3.00 x_2  = 0.696552 + 7.00 x_3  = 0.634483 + 1.00 x_4  = 0.600000 + 3.00 x_5  = 0.000000 + 2.00 x_6  = 0.000000 + 10.00 x_7  = 0.000000 + 4.00 x_8  = 1.000000 + 4.00 x_9  = 1.000000 + 3.00 x_10  = 1.000000 <= 23.00
C_5:	 8.00 x_1  = 0.000000 + 4.00 x_2  = 0.696552 + 2.00 x_3  = 0.634483 + 9.00 x_4  = 0.600000 + 4.00 x_5  = 0.000000 + 10.00 x_6  = 0.000000 + 4.00 x_7  = 0.000000 + 4.00 x_8  = 1.000000 + 1.00 x_9  = 1.000000 + 6.00 x_10  = 1.000000 <= 26.00
Solution initial: 36.551724 
Number Constraints Used in Cover:5
GRASP Method!
Number cuts repeat: 0
value: 36.551724
Number Constraints Used in Cover:7
GRASP Method!
Number cuts repeat: 0
value: 36.551724
Number Constraints Used in Cover:13
GRASP Method!
Number cuts repeat: 0
value: 36.551724
Number Constraints Used in Cover:17
GRASP Method!
Number cuts repeat: 0
value: 36.551724
Number Constraints Used in Cover:21
GRASP Method!
Number cuts repeat: 0
value: 36.551724
Number Constraints Used in Cover:23
GRASP Method!
Number cuts repeat: 0
value: 36.551724
Number Constraints Used in Cover:25
GRASP Method!
Number cuts repeat: 0
value: 36.551724
Number Constraints Used in Cover:27
GRASP Method!
Number cuts repeat: 0
value: 36.551724
Number Constraints Used in Cover:28
GRASP Method!
Number cuts repeat: 0
value: 36.551724
Number Constraints Used in Cover:31
GRASP Method!
Number cuts repeat: 0
value: 36.551724
Number Constraints Used in Cover:39
GRASP Method!
Number cuts repeat: 0
value: 36.551724
Number Constraints Used in Cover:44
GRASP Method!
Number cuts repeat: 0
value: 36.551724
Number Constraints Used in Cover:50
GRASP Method!
Number cuts repeat: 0
value: 36.340909
Number Constraints Used in Cover:57
GRASP Method!
Number cuts repeat: 0
value: 36.340909
Number Constraints Used in Cover:60
GRASP Method!
Number cuts repeat: 0
value: 36.340909
Number Constraints Used in Cover:66
GRASP Method!
Number cuts repeat: 0
value: 36.340909
Number Constraints Used in Cover:70
GRASP Method!
Number cuts repeat: 0
value: 36.340909
Number Constraints Used in Cover:71
GRASP Method!
Number cuts repeat: 0
value: 36.340909
Number Constraints Used in Cover:74
GRASP Method!
Number cuts repeat: 0
value: 36.340909
Number Constraints Used in Cover:77
GRASP Method!
Number cuts repeat: 0
value: 36.340909
Number Constraints Used in Cover:78
GRASP Method!
Number cuts repeat: 0
value: 36.340909
Number Constraints Used in Cover:79
GRASP Method!
Number cuts repeat: 0
value: 36.340909
Number Constraints Used in Cover:81
GRASP Method!
Number cuts repeat: 0
value: 36.340909
Number Constraints Used in Cover:85
GRASP Method!
Number cuts repeat: 0
value: 36.340909
Number Constraints Used in Cover:90
GRASP Method!
Number cuts repeat: 0
value: 36.340909
Number Constraints Used in Cover:91
GRASP Method!
Number cuts repeat: 0
value: 36.340909
Number Constraints Used in Cover:96
GRASP Method!
Number cuts repeat: 0
value: 36.340909
Number Constraints Used in Cover:97
GRASP Method!
Number cuts repeat: 0
value: 36.340909
Number Constraints Used in Cover:100
GRASP Method!
Number cuts repeat: 0
value: 36.340909
Number Constraints Used in Cover:103
GRASP Method!
Number cuts repeat: 0
value: 36.340909
Number Constraints Used in Cover:104
GRASP Method!
Number cuts repeat: 0
value: 36.340909
Number Constraints Used in Cover:110
GRASP Method!
Number cuts repeat: 0
value: 36.340909
Number Constraints Used in Cover:115
GRASP Method!
Number cuts repeat: 0
value: 36.340909
Number Constraints Used in Cover:121
GRASP Method!
Number cuts repeat: 0
value: 36.340909
Number Constraints Used in Cover:126
GRASP Method!
Number cuts repeat: 0
value: 36.340909
Number Constraints Used in Cover:128
GRASP Method!
Number cuts repeat: 0
value: 36.340909
Number Constraints Used in Cover:131
GRASP Method!
Number cuts repeat: 0
value: 36.263499
Number Constraints Used in Cover:135
GRASP Method!
Number cuts repeat: 0
value: 36.263499
Number Constraints Used in Cover:135
GRASP Method!
Number cuts repeat: 0
value: 36.263499
Number Constraints Used in Cover:139
GRASP Method!
Number cuts repeat: 0
value: 36.263499
Number Constraints Used in Cover:141
GRASP Method!
Number cuts repeat: 0
value: 36.263499
Number Constraints Used in Cover:145
GRASP Method!
Number cuts repeat: 0
value: 36.263499
Number Constraints Used in Cover:145
GRASP Method!
Number cuts repeat: 0
value: 36.263499
Number Constraints Used in Cover:146
GRASP Method!
Number cuts repeat: 0
value: 36.263499
Number Constraints Used in Cover:148
GRASP Method!
Number cuts repeat: 0
value: 36.263499
Number Constraints Used in Cover:151
GRASP Method!
Number cuts repeat: 0
value: 36.263499
Number Constraints Used in Cover:152
GRASP Method!
Number cuts repeat: 0
value: 36.263499
Number Constraints Used in Cover:154
GRASP Method!
Number cuts repeat: 0
value: 36.263499
Number Constraints Used in Cover:158
GRASP Method!
Number cuts repeat: 0
value: 36.263499
Number Constraints Used in Cover:162
GRASP Method!
Number cuts repeat: 0
value: 36.263499
Number Constraints Used in Cover:163
GRASP Method!
Number cuts repeat: 0
value: 36.263499
Number Constraints Used in Cover:165
GRASP Method!
Number cuts repeat: 0
value: 36.263499
Number Constraints Used in Cover:166
GRASP Method!
Number cuts repeat: 0
value: 36.263499
Number Constraints Used in Cover:167
GRASP Method!
Number cuts repeat: 0
value: 36.263499
Number Constraints Used in Cover:167
GRASP Method!
Number cuts repeat: 0
value: 36.263499
Number Constraints Used in Cover:170
GRASP Method!
Number cuts repeat: 0
value: 36.263499
Number Constraints Used in Cover:171
GRASP Method!
Number cuts repeat: 0
value: 36.263499
Number Constraints Used in Cover:171
GRASP Method!
Number cuts repeat: 0
value: 36.263499
Number Constraints Used in Cover:173
GRASP Method!
Number cuts repeat: 0
value: 36.263499
Number Constraints Used in Cover:173
GRASP Method!
Number cuts repeat: 0
value: 36.263499
Number Constraints Used in Cover:173
GRASP Method!
Number cuts repeat: 0
value: 36.263499
Number Constraints Used in Cover:173
GRASP Method!
Number cuts repeat: 0
value: 36.263499
Number Constraints Used in Cover:175
GRASP Method!
Number cuts repeat: 0
value: 36.263499
Number Constraints Used in Cover:175
GRASP Method!
Number cuts repeat: 0
value: 36.263499
Number Constraints Used in Cover:179
GRASP Method!
Number cuts repeat: 0
value: 36.263499
Number Constraints Used in Cover:180
GRASP Method!
Number cuts repeat: 0
value: 36.263499
Number Constraints Used in Cover:181
GRASP Method!
Number cuts repeat: 0
value: 36.263499
Number Constraints Used in Cover:183
GRASP Method!
Number cuts repeat: 0
value: 36.263499
Number Constraints Used in Cover:184
GRASP Method!
Number cuts repeat: 0
value: 36.263499
Number Constraints Used in Cover:184
GRASP Method!
Number cuts repeat: 0
value: 36.263499
Number Constraints Used in Cover:184
GRASP Method!
Number cuts repeat: 0
value: 36.263499
Number Constraints Used in Cover:184
GRASP Method!
Number cuts repeat: 0
value: 36.263499
Number Constraints Used in Cover:185
GRASP Method!
Number cuts repeat: 0
value: 36.263499
Number Constraints Used in Cover:186
GRASP Method!
Number cuts repeat: 0
value: 36.263499
Number Constraints Used in Cover:187
GRASP Method!
Number cuts repeat: 0
value: 36.263499
Number Constraints Used in Cover:187
GRASP Method!
Number cuts repeat: 0
value: 36.000000
Number Constraints Used in Cover:191
GRASP Method!
Number cuts repeat: 0
value: 36.000000
Number Constraints Used in Cover:191
GRASP Method!
Number cuts repeat: 0
value: 36.000000
Number Constraints Used in Cover:191
GRASP Method!
Number cuts repeat: 0
value: 36.000000
Number Constraints Used in Cover:191
GRASP Method!
Number cuts repeat: 0
value: 36.000000
Number Constraints Used in Cover:191
GRASP Method!
Number cuts repeat: 0
value: 36.000000
Number Constraints Used in Cover:192
GRASP Method!
Number cuts repeat: 0
value: 36.000000
Number Constraints Used in Cover:194
GRASP Method!
Number cuts repeat: 0
value: 36.000000
Number Constraints Used in Cover:197
GRASP Method!
Number cuts repeat: 0
value: 36.000000
Number Constraints Used in Cover:198
GRASP Method!
Number cuts repeat: 0
value: 36.000000
Number Constraints Used in Cover:198
GRASP Method!
Number cuts repeat: 0
value: 36.000000
Number Constraints Used in Cover:198
GRASP Method!
Number cuts repeat: 0
value: 36.000000
Number Constraints Used in Cover:198
GRASP Method!
Number cuts repeat: 0
value: 36.000000
Number Constraints Used in Cover:198
GRASP Method!
Number cuts repeat: 0
value: 36.000000
Number Constraints Used in Cover:199
GRASP Method!
Number cuts repeat: 0
value: 36.000000
Number Constraints Used in Cover:200
GRASP Method!
Number cuts repeat: 0
value: 36.000000
Number Constraints Used in Cover:200
GRASP Method!
Number cuts repeat: 0
value: 36.000000
Number Constraints Used in Cover:201
GRASP Method!
Number cuts repeat: 0
value: 36.000000
Number Constraints Used in Cover:201
GRASP Method!
Number cuts repeat: 0
value: 36.000000
Number Constraints Used in Cover:201
GRASP Method!
Number cuts repeat: 0
value: 36.000000
Number Constraints Used in Cover:201
GRASP Method!
Number cuts repeat: 0
value: 36.000000
Number Constraints Used in Cover:203
GRASP Method!
Number cuts repeat: 0
value: 36.000000
Number Constraints Used in Cover:204
GRASP Method!
Number cuts repeat: 0
value: 36.000000
Number Constraints Used in Cover:207
GRASP Method!
Number cuts repeat: 0
value: 36.000000
Number Constraints Used in Cover:208
GRASP Method!
Number cuts repeat: 0
value: 36.000000
Number Constraints Used in Cover:213
GRASP Method!
Number cuts repeat: 0
value: 36.000000
Number Constraints Used in Cover:215
GRASP Method!
Number cuts repeat: 0
value: 36.000000
Number Constraints Used in Cover:216
GRASP Method!
Number cuts repeat: 0
value: 36.000000
Number Constraints Used in Cover:221
GRASP Method!
Number cuts repeat: 0
value: 36.000000
Number Constraints Used in Cover:221
GRASP Method!
Number cuts repeat: 0
value: 36.000000
Number Constraints Used in Cover:223
GRASP Method!
Number cuts repeat: 0
value: 36.000000
Number Constraints Used in Cover:223
GRASP Method!
Number cuts repeat: 0
value: 36.000000
Number Constraints Used in Cover:227
GRASP Method!
Number cuts repeat: 0
value: 36.000000
Number Constraints Used in Cover:229
GRASP Method!
Number cuts repeat: 0
value: 36.000000
Number Constraints Used in Cover:231
GRASP Method!
Number cuts repeat: 0
value: 36.000000
Number Constraints Used in Cover:231
GRASP Method!
Number cuts repeat: 0
value: 36.000000
Number Constraints Used in Cover:234
GRASP Method!
Number cuts repeat: 0
value: 36.000000
Number Constraints Used in Cover:234
GRASP Method!
Number cuts repeat: 0
value: 36.000000
Number Constraints Used in Cover:234
GRASP Method!
Number cuts repeat: 0
value: 36.000000
Number Constraints Used in Cover:236
GRASP Method!
Number cuts repeat: 0
value: 36.000000
Number Constraints Used in Cover:236
GRASP Method!
Number cuts repeat: 0
value: 36.000000
Number Constraints Used in Cover:237
GRASP Method!
Number cuts repeat: 0
value: 36.000000
Number Constraints Used in Cover:240
GRASP Method!
Number cuts repeat: 0
value: 36.000000
Number Constraints Used in Cover:241
GRASP Method!
Number cuts repeat: 0
value: 36.000000
Number Constraints Used in Cover:241
GRASP Method!
Number cuts repeat: 0
value: 36.000000
Number Constraints Used in Cover:243
GRASP Method!
Number cuts repeat: 0
value: 36.000000
Number Constraints Used in Cover:244
GRASP Method!
Number cuts repeat: 0
value: 36.000000
Number Constraints Used in Cover:244
GRASP Method!
Number cuts repeat: 0
value: 36.000000
Number Constraints Used in Cover:244
GRASP Method!
Number cuts repeat: 0
value: 36.000000
Number Constraints Used in Cover:245
GRASP Method!
Number cuts repeat: 0
value: 36.000000
Number Constraints Used in Cover:245
GRASP Method!
Number cuts repeat: 0
value: 36.000000
Number Constraints Used in Cover:245
GRASP Method!
Number cuts repeat: 0
value: 36.000000
Number Constraints Used in Cover:246
GRASP Method!
Number cuts repeat: 0
value: 36.000000
Number Constraints Used in Cover:247
GRASP Method!
Number cuts repeat: 0
value: 36.000000
Number Constraints Used in Cover:248
GRASP Method!
Number cuts repeat: 0
value: 36.000000
Number Constraints Used in Cover:248
GRASP Method!
Number cuts repeat: 0
value: 36.000000
Number Constraints Used in Cover:248
GRASP Method!
Number cuts repeat: 0
value: 36.000000
Number Constraints Used in Cover:249
GRASP Method!
Number cuts repeat: 0
value: 36.000000
Number Constraints Used in Cover:249
GRASP Method!
Number cuts repeat: 0
value: 36.000000
Number Constraints Used in Cover:249
GRASP Method!
Number cuts repeat: 0
value: 36.000000
Number Constraints Used in Cover:249
GRASP Method!
Number cuts repeat: 0
value: 36.000000
Number Constraints Used in Cover:249
GRASP Method!
Number cuts repeat: 0
value: 36.000000
Number Constraints Used in Cover:249
GRASP Method!
Number cuts repeat: 0
value: 36.000000
Number Constraints Used in Cover:251
GRASP Method!
Number cuts repeat: 0
value: 36.000000
Number Constraints Used in Cover:252
GRASP Method!
Number cuts repeat: 0
value: 36.000000
Number Constraints Used in Cover:252
GRASP Method!
Number cuts repeat: 0
value: 36.000000
Number Constraints Used in Cover:253
GRASP Method!
Number cuts repeat: 0
value: 36.000000
Number Constraints Used in Cover:253
GRASP Method!
Number cuts repeat: 0
value: 36.000000
Number Constraints Used in Cover:253
GRASP Method!
Number cuts repeat: 0
value: 36.000000
Number Constraints Used in Cover:254
GRASP Method!
Number cuts repeat: 0
value: 36.000000
Number Constraints Used in Cover:254
GRASP Method!
Number cuts repeat: 0
value: 36.000000
Number Constraints Used in Cover:255
GRASP Method!
Number cuts repeat: 0
value: 36.000000
Number Constraints Used in Cover:255
GRASP Method!
Number cuts repeat: 0
value: 36.000000
Number Constraints Used in Cover:255
GRASP Method!
Number cuts repeat: 0
value: 36.000000
Number Constraints Used in Cover:255
GRASP Method!
Number cuts repeat: 0
value: 36.000000
Number Constraints Used in Cover:256
GRASP Method!
Number cuts repeat: 0
value: 36.000000
Number Constraints Used in Cover:256
GRASP Method!
Number cuts repeat: 0
value: 36.000000
Number Constraints Used in Cover:256
GRASP Method!
Number cuts repeat: 0
value: 36.000000
Number Constraints Used in Cover:256
GRASP Method!
Number cuts repeat: 0
value: 36.000000
Number Constraints Used in Cover:256
GRASP Method!
Number cuts repeat: 0
value: 36.000000
Number Constraints Used in Cover:256
GRASP Method!
Number cuts repeat: 0
value: 36.000000
Number Constraints Used in Cover:256
GRASP Method!
Number cuts repeat: 0
value: 36.000000
Number Constraints Used in Cover:258
GRASP Method!
Number cuts repeat: 0
value: 36.000000
Number Constraints Used in Cover:258
GRASP Method!
Number cuts repeat: 0
value: 36.000000
Number Constraints Used in Cover:258
GRASP Method!
Number cuts repeat: 0
value: 36.000000
Number Constraints Used in Cover:258
GRASP Method!
Number cuts repeat: 0
value: 36.000000
Number Constraints Used in Cover:258
GRASP Method!
Number cuts repeat: 0
value: 36.000000
Number Constraints Used in Cover:258
GRASP Method!
Number cuts repeat: 0
value: 36.000000
Number Constraints Used in Cover:258
GRASP Method!
Number cuts repeat: 0
value: 36.000000
Number Constraints Used in Cover:258
GRASP Method!
Number cuts repeat: 0
value: 36.000000
Number Constraints Used in Cover:258
GRASP Method!
Number cuts repeat: 0
value: 36.000000
Number Constraints Used in Cover:260
GRASP Method!
Number cuts repeat: 0
value: 36.000000
Number Constraints Used in Cover:260
GRASP Method!
Number cuts repeat: 0
value: 36.000000
Number Constraints Used in Cover:260
GRASP Method!
Number cuts repeat: 0
value: 36.000000
Number Constraints Used in Cover:260
GRASP Method!
Number cuts repeat: 0
value: 36.000000
Number Constraints Used in Cover:261
GRASP Method!
Number cuts repeat: 0
value: 36.000000
Number Constraints Used in Cover:261
GRASP Method!
Number cuts repeat: 0
value: 36.000000
Number Constraints Used in Cover:261
GRASP Method!
Number cuts repeat: 0
value: 36.000000
Number Constraints Used in Cover:261
GRASP Method!
Number cuts repeat: 0
value: 36.000000
Number Constraints Used in Cover:261
GRASP Method!
Number cuts repeat: 0
value: 36.000000
Number Constraints Used in Cover:261
GRASP Method!
Number cuts repeat: 0
value: 36.000000
Number Constraints Used in Cover:261
GRASP Method!
Number cuts repeat: 0
value: 36.000000
Number Constraints Used in Cover:261
GRASP Method!
Number cuts repeat: 0
value: 36.000000
Number Constraints Used in Cover:261
GRASP Method!
Number cuts repeat: 0
value: 36.000000
Number Constraints Used in Cover:261
GRASP Method!
Number cuts repeat: 0
value: 36.000000
Number Constraints Used in Cover:261
GRASP Method!
Number cuts repeat: 0
value: 36.000000
Number Constraints Used in Cover:262
GRASP Method!
Number cuts repeat: 0
value: 36.000000
Number Constraints Used in Cover:263
GRASP Method!
Number cuts repeat: 0
value: 36.000000
Number Constraints Used in Cover:263
GRASP Method!
Number cuts repeat: 0
value: 36.000000
Number Constraints Used in Cover:264
GRASP Method!
Number cuts repeat: 0
value: 36.000000
Number Constraints Used in Cover:264
GRASP Method!
Number cuts repeat: 0
value: 36.000000
Number Constraints Used in Cover:266
GRASP Method!
Number cuts repeat: 0
value: 36.000000
Number Constraints Used in Cover:266
GRASP Method!
Number cuts repeat: 0
value: 36.000000
Number Constraints Used in Cover:266
GRASP Method!
Number cuts repeat: 0
value: 36.000000
Number Constraints Used in Cover:266
GRASP Method!
Number cuts repeat: 0
value: 36.000000
Number Constraints Used in Cover:266
GRASP Method!
Number cuts repeat: 0
value: 36.000000
Number Constraints Used in Cover:266
GRASP Method!
Number cuts repeat: 0
value: 36.000000
Number Constraints Used in Cover:266
GRASP Method!
Number cuts repeat: 0
value: 36.000000
Number Constraints Used in Cover:267
GRASP Method!
Number cuts repeat: 0
value: 36.000000
Number Constraints Used in Cover:267
GRASP Method!
Number cuts repeat: 0
value: 36.000000
Number Constraints Used in Cover:268
GRASP Method!
Number cuts repeat: 0
value: 36.000000
Number Constraints Used in Cover:268
GRASP Method!
Number cuts repeat: 0
value: 36.000000
Number Constraints Used in Cover:268
GRASP Method!
Number cuts repeat: 0
value: 36.000000
Number Constraints Used in Cover:269
GRASP Method!
Number cuts repeat: 0
value: 36.000000
Number Constraints Used in Cover:269
GRASP Method!
Number cuts repeat: 0
value: 36.000000
Number Constraints Used in Cover:269
GRASP Method!
Number cuts repeat: 0
value: 36.000000
Number Constraints Used in Cover:269
GRASP Method!
Number cuts repeat: 0
value: 36.000000
Number Constraints Used in Cover:269
GRASP Method!
Number cuts repeat: 0
value: 36.000000
Number Constraints Used in Cover:269
GRASP Method!
Number cuts repeat: 0
value: 36.000000
Number Constraints Used in Cover:269
GRASP Method!
Number cuts repeat: 0
value: 36.000000
Number Constraints Used in Cover:269
GRASP Method!
Number cuts repeat: 0
value: 36.000000
Number Constraints Used in Cover:269
GRASP Method!
Number cuts repeat: 0
value: 36.000000
Number Constraints Used in Cover:269
GRASP Method!
Number cuts repeat: 0
value: 36.000000
Number Constraints Used in Cover:269
GRASP Method!
Number cuts repeat: 0
value: 36.000000
Number Constraints Used in Cover:269
GRASP Method!
Number cuts repeat: 0
value: 36.000000
Number Constraints Used in Cover:269
GRASP Method!
Number cuts repeat: 0
value: 36.000000
Number Constraints Used in Cover:269
GRASP Method!
Number cuts repeat: 0
value: 36.000000
Number Constraints Used in Cover:269
GRASP Method!
Number cuts repeat: 0
value: 36.000000
Number Constraints Used in Cover:269
GRASP Method!
Number cuts repeat: 0
value: 36.000000
Number Constraints Used in Cover:269
GRASP Method!
Number cuts repeat: 0
value: 36.000000
Number Constraints Used in Cover:271
GRASP Method!
Number cuts repeat: 0
value: 36.000000
Number Constraints Used in Cover:271
GRASP Method!
Number cuts repeat: 0
value: 36.000000
Number Constraints Used in Cover:271
GRASP Method!
Number cuts repeat: 0
value: 36.000000
Number Constraints Used in Cover:271
GRASP Method!
Number cuts repeat: 0
value: 36.000000
Number Constraints Used in Cover:272
GRASP Method!
Number cuts repeat: 0
value: 36.000000
Number Constraints Used in Cover:272
GRASP Method!
Number cuts repeat: 0
value: 36.000000
Number Constraints Used in Cover:272
GRASP Method!
Number cuts repeat: 0
value: 36.000000
Number Constraints Used in Cover:272
GRASP Method!
Number cuts repeat: 0
value: 36.000000
Number Constraints Used in Cover:272
GRASP Method!
Number cuts repeat: 0
value: 36.000000
Number Constraints Used in Cover:272
GRASP Method!
Number cuts repeat: 0
value: 36.000000
Number Constraints Used in Cover:272
GRASP Method!
Number cuts repeat: 0
value: 36.000000
Number Constraints Used in Cover:272
GRASP Method!
Number cuts repeat: 0
value: 36.000000
Number Constraints Used in Cover:272
GRASP Method!
Number cuts repeat: 0
value: 36.000000
Number Constraints Used in Cover:272
GRASP Method!
Number cuts repeat: 0
value: 36.000000
Number Constraints Used in Cover:272
GRASP Method!
Number cuts repeat: 0
value: 36.000000
Number Constraints Used in Cover:273
GRASP Method!
Number cuts repeat: 0
value: 36.000000
Number Constraints Used in Cover:273
GRASP Method!
Number cuts repeat: 0
value: 36.000000
Number Constraints Used in Cover:273
GRASP Method!
Number cuts repeat: 0
value: 36.000000
Number Constraints Used in Cover:273
GRASP Method!
Number cuts repeat: 0
value: 36.000000
Number Constraints Used in Cover:273
GRASP Method!
Number cuts repeat: 0
value: 36.000000
Number Constraints Used in Cover:273
GRASP Method!
Number cuts repeat: 0
value: 36.000000
Number Constraints Used in Cover:273
GRASP Method!
Number cuts repeat: 0
value: 36.000000
Number Constraints Used in Cover:273
GRASP Method!
Number cuts repeat: 0
value: 36.000000
Number Constraints Used in Cover:273
GRASP Method!
Number cuts repeat: 0
value: 36.000000
Number Constraints Used in Cover:273
GRASP Method!
Number cuts repeat: 0
value: 36.000000
Number Constraints Used in Cover:273
GRASP Method!
Number cuts repeat: 0
value: 36.000000
Number Constraints Used in Cover:273
GRASP Method!
Number cuts repeat: 0
value: 36.000000
Number Constraints Used in Cover:273
GRASP Method!
Number cuts repeat: 0
value: 36.000000
Number Constraints Used in Cover:273
GRASP Method!
Number cuts repeat: 0
value: 36.000000
Number Constraints Used in Cover:273
GRASP Method!
Number cuts repeat: 0
value: 36.000000
Number Constraints Used in Cover:273
GRASP Method!
Number cuts repeat: 0
value: 36.000000
Number Constraints Used in Cover:273
GRASP Method!
Number cuts repeat: 0
value: 36.000000
Number Constraints Used in Cover:273
GRASP Method!
Number cuts repeat: 0
value: 36.000000
Number Constraints Used in Cover:273
GRASP Method!
Number cuts repeat: 0
value: 36.000000
Number Constraints Used in Cover:273
GRASP Method!
Number cuts repeat: 0
value: 36.000000
Number Constraints Used in Cover:273
GRASP Method!
Number cuts repeat: 0
value: 36.000000
Number Constraints Used in Cover:274
GRASP Method!
Number cuts repeat: 0
value: 36.000000
Number Constraints Used in Cover:274
GRASP Method!
Number cuts repeat: 0
value: 36.000000
Number Constraints Used in Cover:274
GRASP Method!
Number cuts repeat: 0
value: 36.000000
Number Constraints Used in Cover:274
GRASP Method!
Number cuts repeat: 0
value: 36.000000
Number Constraints Used in Cover:274
GRASP Method!
Number cuts repeat: 0
value: 36.000000
Number Constraints Used in Cover:274
GRASP Method!
Number cuts repeat: 0
value: 36.000000
Number Constraints Used in Cover:274
GRASP Method!
Number cuts repeat: 0
value: 36.000000
Number Constraints Used in Cover:276
GRASP Method!
Number cuts repeat: 0
value: 36.000000
Number Constraints Used in Cover:276
GRASP Method!
Number cuts repeat: 0
value: 36.000000
Number Constraints Used in Cover:276
GRASP Method!
Number cuts repeat: 0
value: 36.000000
Number Constraints Used in Cover:276
GRASP Method!
Number cuts repeat: 0
value: 35.200000
Number Constraints Used in Cover:277
GRASP Method!
Number cuts repeat: 0
value: 35.200000
Number Constraints Used in Cover:293
GRASP Method!
Number cuts repeat: 0
value: 35.200000
Number Constraints Used in Cover:306
GRASP Method!
Number cuts repeat: 0
value: 35.200000
Number Constraints Used in Cover:313
GRASP Method!
Number cuts repeat: 0
value: 35.200000
Number Constraints Used in Cover:321
GRASP Method!
Number cuts repeat: 0
value: 35.200000
Number Constraints Used in Cover:329
GRASP Method!
Number cuts repeat: 0
value: 35.200000
Number Constraints Used in Cover:333
GRASP Method!
Number cuts repeat: 0
value: 35.200000
Number Constraints Used in Cover:338
GRASP Method!
Number cuts repeat: 0
value: 35.200000
Number Constraints Used in Cover:343
GRASP Method!
Number cuts repeat: 0
value: 35.200000
Number Constraints Used in Cover:349
GRASP Method!
Number cuts repeat: 0
value: 35.200000
Number Constraints Used in Cover:352
GRASP Method!
Number cuts repeat: 0
value: 35.200000
Number Constraints Used in Cover:354
GRASP Method!
Number cuts repeat: 0
value: 35.200000
Number Constraints Used in Cover:356
GRASP Method!
Number cuts repeat: 0
value: 35.200000
Number Constraints Used in Cover:362
GRASP Method!
Number cuts repeat: 0
value: 35.200000
Number Constraints Used in Cover:364
GRASP Method!
Number cuts repeat: 0
value: 35.200000
Number Constraints Used in Cover:365
GRASP Method!
Number cuts repeat: 0
value: 35.200000
Number Constraints Used in Cover:368
GRASP Method!
Number cuts repeat: 0
value: 35.200000
Number Constraints Used in Cover:378
GRASP Method!
Number cuts repeat: 0
value: 35.200000
Number Constraints Used in Cover:382
GRASP Method!
Number cuts repeat: 0
value: 35.100000
Number Constraints Used in Cover:389
GRASP Method!
Number cuts repeat: 0
value: 35.100000
Number Constraints Used in Cover:473
GRASP Method!
Number cuts repeat: 0
value: 35.100000
Number Constraints Used in Cover:512
GRASP Method!
Number cuts repeat: 0
value: 35.100000
Number Constraints Used in Cover:537
GRASP Method!
Number cuts repeat: 0
value: 35.100000
Number Constraints Used in Cover:559
GRASP Method!
Number cuts repeat: 0
value: 35.100000
Number Constraints Used in Cover:571
GRASP Method!
Number cuts repeat: 0
value: 35.100000
Number Constraints Used in Cover:582
GRASP Method!
Number cuts repeat: 0
value: 35.100000
Number Constraints Used in Cover:589
GRASP Method!
Number cuts repeat: 0
value: 35.100000
Number Constraints Used in Cover:592
GRASP Method!
Number cuts repeat: 0
value: 35.100000
Number Constraints Used in Cover:594
GRASP Method!
Number cuts repeat: 0
value: 35.100000
Number Constraints Used in Cover:602
GRASP Method!
Number cuts repeat: 0
value: 35.100000
Number Constraints Used in Cover:603
GRASP Method!
Number cuts repeat: 0
value: 35.100000
Number Constraints Used in Cover:605
GRASP Method!
Number cuts repeat: 0
value: 35.100000
Number Constraints Used in Cover:608
GRASP Method!
Number cuts repeat: 0
value: 35.100000
Number Constraints Used in Cover:609
GRASP Method!
Number cuts repeat: 0
value: 35.100000
Number Constraints Used in Cover:611
GRASP Method!
Number cuts repeat: 0
value: 35.100000
Number Constraints Used in Cover:615
GRASP Method!
Number cuts repeat: 0
value: 35.100000
Number Constraints Used in Cover:622
GRASP Method!
Number cuts repeat: 0
value: 35.100000
Number Constraints Used in Cover:623
GRASP Method!
Number cuts repeat: 0
value: 35.100000
Number Constraints Used in Cover:624
GRASP Method!
Number cuts repeat: 0
value: 35.100000
Number Constraints Used in Cover:626
GRASP Method!
Number cuts repeat: 0
value: 35.100000
Number Constraints Used in Cover:627
GRASP Method!
Number cuts repeat: 0
value: 35.100000
Number Constraints Used in Cover:629
GRASP Method!
Number cuts repeat: 0
value: 35.100000
Number Constraints Used in Cover:629
GRASP Method!
Number cuts repeat: 0
value: 35.100000
Number Constraints Used in Cover:633
GRASP Method!
Number cuts repeat: 0
value: 35.100000
Number Constraints Used in Cover:638
GRASP Method!
Number cuts repeat: 0
value: 35.100000
Number Constraints Used in Cover:641
GRASP Method!
Number cuts repeat: 0
value: 35.100000
Number Constraints Used in Cover:644
GRASP Method!
Number cuts repeat: 0
value: 35.100000
Number Constraints Used in Cover:645
GRASP Method!
Number cuts repeat: 0
value: 35.100000
Number Constraints Used in Cover:649
GRASP Method!
Number cuts repeat: 0
value: 35.100000
Number Constraints Used in Cover:650
GRASP Method!
Number cuts repeat: 0
value: 35.100000
Number Constraints Used in Cover:652
GRASP Method!
Number cuts repeat: 0
value: 35.100000
Number Constraints Used in Cover:655
GRASP Method!
Number cuts repeat: 0
value: 35.100000
Number Constraints Used in Cover:656
GRASP Method!
Number cuts repeat: 0
value: 35.100000
Number Constraints Used in Cover:656
GRASP Method!
Number cuts repeat: 0
value: 35.100000
Number Constraints Used in Cover:658
GRASP Method!
Number cuts repeat: 0
value: 35.100000
Number Constraints Used in Cover:661
GRASP Method!
Number cuts repeat: 0
value: 35.100000
Number Constraints Used in Cover:664
GRASP Method!
Number cuts repeat: 0
value: 35.100000
Number Constraints Used in Cover:664
GRASP Method!
Number cuts repeat: 0
value: 35.100000
Number Constraints Used in Cover:665
GRASP Method!
Number cuts repeat: 0
value: 35.100000
Number Constraints Used in Cover:666
GRASP Method!
Number cuts repeat: 0
value: 35.100000
Number Constraints Used in Cover:668
GRASP Method!
Number cuts repeat: 0
value: 35.100000
Number Constraints Used in Cover:668
GRASP Method!
Number cuts repeat: 0
value: 35.100000
Number Constraints Used in Cover:669
GRASP Method!
Number cuts repeat: 0
value: 35.100000
Number Constraints Used in Cover:669
GRASP Method!
Number cuts repeat: 0
value: 35.100000
Number Constraints Used in Cover:669
GRASP Method!
Number cuts repeat: 0
value: 35.100000
Number Constraints Used in Cover:669
GRASP Method!
Number cuts repeat: 0
value: 35.100000
Number Cuts Final: 666
